% RUNS ON fzn_lp_canon

var int:   x :: output_var;
var float: y :: output_var;

constraint int2float(10, y);
constraint int2float(x, 10.0);
constraint int2float(1, 1.0);
constraint int2float(-1, -1.0);
constraint int2float(0, 0.0);

solve satisfy;
